50 5
659
360
611
487
248
100
451
125
631
314
504
435
492
427
478
536
244
487
662
364
594
146
494
570
521
282
547
221
448
160
547
235
224
671
446
158
158
181
122
585
289
271
330
533
462
572
188
609
337
352
3602
4333
5267
3570
3096
